
List of user-set options:

                                    Name   Value                used
                           compl_inf_tol = 1                     yes
                         constr_viol_tol = 1                     yes
                            dual_inf_tol = 1000                  yes
                           linear_solver = ma97                  yes
                              ma86_small = 1e-30                  no
                                  ma86_u = 0.0001                 no
                              ma97_order = best                  yes
                              ma97_small = 1e-30                 yes
                            ma97_switch1 = at_start              yes
                            ma97_switch2 = od_hd_reuse           yes
                                  ma97_u = 1e-06                 yes
                               ma97_umax = 0.5                   yes
                                max_iter = 1000                  yes
                    max_refinement_steps = 20                    yes
                    min_refinement_steps = 5                     yes
                                 mu_init = 1e-06                 yes
           mu_superlinear_decrease_power = 1.25                  yes
                   nlp_scaling_min_value = 1e-08                 yes
                        option_file_name = Preset_Case_559_pf.opt  yes
                             output_file = ./tmp/Preset_Case_559_pf.output  yes
                      print_user_options = yes                   yes
        required_infeasibility_reduction = 1                      no
                                     tol = 1e-08                 yes
                   warm_start_bound_frac = 1e-20                 yes
                   warm_start_bound_push = 1e-20                 yes
                   warm_start_init_point = yes                   yes
              warm_start_mult_bound_push = 1e-20                 yes
                warm_start_mult_init_max = 1e+40                 yes
             warm_start_slack_bound_frac = 1e-20                 yes
             warm_start_slack_bound_push = 1e-20                 yes

******************************************************************************
This program contains Ipopt, a library for large-scale nonlinear optimization.
 Ipopt is released as open source code under the Eclipse Public License (EPL).
         For more information visit http://projects.coin-or.org/Ipopt
******************************************************************************

This is Ipopt version 3.12.10, running with linear solver ma97.

Number of nonzeros in equality constraint Jacobian...:   123442
Number of nonzeros in inequality constraint Jacobian.:      213
Number of nonzeros in Lagrangian Hessian.............:    49069

Total number of variables............................:    31591
                     variables with only lower bounds:    12912
                variables with lower and upper bounds:    15130
                     variables with only upper bounds:        0
Total number of equality constraints.................:    31483
Total number of inequality constraints...............:       25
        inequality constraints with only lower bounds:        4
   inequality constraints with lower and upper bounds:        0
        inequality constraints with only upper bounds:       21

iter    objective    inf_pr   inf_du lg(mu)  ||d||  lg(rg) alpha_du alpha_pr  ls
   0 -5.1978051e+00 4.06e-03 1.02e+00  -6.0 0.00e+00    -  0.00e+00 0.00e+00   0
   1 -5.1973506e+00 9.12e+00 3.34e+01  -6.0 2.72e+05    -  1.26e-04 1.71e-03h  1
   2 -5.1973111e+00 9.12e+00 3.34e+01  -6.0 2.22e+03    -  1.18e-04 3.37e-05h  1
   3 -5.1972232e+00 9.12e+00 3.45e+01  -6.0 1.78e+04    -  8.95e-05 3.31e-05h  7
   4 -5.1971821e+00 9.12e+00 4.01e+01  -6.0 3.05e+03    -  7.51e-02 3.66e-05h  7
   5 -5.1971792e+00 9.12e+00 4.52e+01  -6.0 1.83e+05    -  2.10e-04 1.07e-06h  8
   6 -5.1965337e+00 9.11e+00 4.52e+01  -6.0 1.78e+04    -  2.43e-04 2.43e-04s 12
   7r-5.1965337e+00 9.11e+00 9.99e+02   1.0 0.00e+00    -  0.00e+00 0.00e+00R  1
   8r-5.2006468e+00 9.11e+00 2.38e+03   1.0 2.83e+06    -  1.13e-07 1.33e-08f  1
   9 -5.2006181e+00 9.11e+00 1.26e+03  -6.0 5.26e+02    -  8.02e-04 2.19e-05h  1
iter    objective    inf_pr   inf_du lg(mu)  ||d||  lg(rg) alpha_du alpha_pr  ls
  10 -5.1993181e+00 9.11e+00 3.73e+04  -6.0 6.98e+02    -  2.29e-05 6.61e-04h  1
  11 -5.1987020e+00 9.10e+00 3.73e+04  -6.0 3.58e+02    -  5.98e-04 3.63e-04h  1
  12 -5.1974806e+00 9.10e+00 3.73e+04  -6.0 3.69e+02    -  4.42e-04 7.38e-04h  1
  13 -5.1894960e+00 9.06e+00 3.71e+04  -6.0 3.64e+02    -  2.36e-04 4.51e-03h  2
  14 -5.1893180e+00 9.06e+00 3.71e+04  -6.0 3.62e+02    -  3.83e-04 9.64e-05h  7
  15 -5.1892579e+00 9.06e+00 3.71e+04  -6.0 3.55e+02    -  8.88e-05 3.07e-05h  9
  16 -5.1892179e+00 9.06e+00 3.71e+04  -6.0 3.20e+02    -  4.30e-03 1.67e-05h 10
  17r-5.1892179e+00 9.06e+00 9.99e+02   1.0 0.00e+00    -  0.00e+00 2.64e-07R 18
  18r-5.1876766e+00 9.06e+00 7.27e+04   1.0 7.72e+04    -  6.75e-08 2.12e-08f  1
  19 -5.1876533e+00 9.06e+00 1.82e+05  -6.0 3.72e+02    -  2.31e-03 1.31e-05h  1
iter    objective    inf_pr   inf_du lg(mu)  ||d||  lg(rg) alpha_du alpha_pr  ls
  20 -5.1811001e+00 9.03e+00 4.16e+07  -6.0 3.54e+02    -  1.44e-05 3.26e-03h  1
  21 -5.1722963e+00 8.99e+00 4.14e+07  -6.0 3.40e+02    -  2.18e-03 4.02e-03h  1
  22 -5.1379171e+00 8.86e+00 4.08e+07  -6.0 3.26e+02    -  8.80e-03 1.46e-02h  1
  23 -5.0593032e+00 8.56e+00 3.94e+07  -6.0 3.23e+02    -  2.38e-02 3.39e-02h  1
  24 -4.9743077e+00 8.24e+00 3.80e+07  -6.0 3.14e+02    -  6.38e-02 3.73e-02h  1
  25 -4.8646600e+00 7.85e+00 3.62e+07  -6.0 3.00e+02    -  6.84e-02 4.76e-02h  1
  26 -4.7884223e+00 7.59e+00 3.50e+07  -6.0 2.86e+02    -  1.50e-01 3.35e-02h  1
  27 -4.4948064e+00 6.66e+00 3.06e+07  -6.0 2.69e+02    -  1.52e-02 1.24e-01h  1
  28 -4.3541028e+00 6.17e+00 2.84e+07  -6.0 2.65e+02    -  9.22e-03 7.39e-02h  1
  29 -3.4287915e+00 2.92e+00 1.26e+07  -6.0 2.63e+02    -  5.03e-02 5.57e-01h  1
iter    objective    inf_pr   inf_du lg(mu)  ||d||  lg(rg) alpha_du alpha_pr  ls
  30 -3.3981736e+00 2.14e+00 9.18e+06  -6.0 2.04e+02    -  1.13e-01 2.70e-01h  1
  31 -3.4926068e+00 1.13e+00 3.93e+06  -6.0 1.43e+02    -  1.79e-01 5.72e-01h  1
  32 -3.5410026e+00 9.82e-01 3.39e+06  -6.0 1.81e+01    -  6.68e-01 1.36e-01h  1
  33 -4.1041599e+00 5.90e+00 1.84e+06  -6.0 9.39e+01    -  1.01e-06 4.58e-01h  1
  34 -4.1859214e+00 4.85e+00 1.52e+06  -6.0 3.43e+01    -  8.11e-02 1.73e-01h  1
  35 -4.3724193e+00 3.68e+00 1.13e+06  -6.0 3.67e+01    -  3.07e-01 2.54e-01h  1
  36 -4.8652743e+00 1.54e+00 5.19e+05  -6.0 4.03e+01    -  2.22e-01 5.43e-01h  1
  37 -4.8832334e+00 1.51e+00 5.09e+05  -6.0 4.92e+01    -  1.92e-01 1.86e-02h  1
  38 -5.0984709e+00 1.12e+00 3.81e+05  -6.0 4.98e+01    -  9.01e-02 2.51e-01h  1
  39 -5.1097550e+00 1.05e+00 3.85e+05  -6.0 6.54e+01    -  2.52e-03 6.75e-02h  1
iter    objective    inf_pr   inf_du lg(mu)  ||d||  lg(rg) alpha_du alpha_pr  ls
  40 -5.1269022e+00 1.02e+00 3.90e+05  -6.0 4.61e+01    -  4.67e-02 2.65e-02h  1
  41 -5.1911347e+00 8.65e-01 1.64e+06  -6.0 6.16e+01    -  4.74e-01 1.75e-01h  1
  42 -5.2973858e+00 6.77e-01 1.65e+07  -6.0 1.09e+02    -  1.62e-01 2.56e-01h  1
  43 -5.3892134e+00 5.73e-01 5.72e+06  -6.0 1.06e+02    -  1.35e-01 1.71e-01h  1
  44 -5.3878702e+00 5.25e-01 1.90e+06  -6.0 7.13e+01    -  1.61e-01 8.71e-02h  1
  45 -5.3893290e+00 4.27e-01 1.14e+07  -6.0 5.68e+01    -  6.54e-02 1.89e-01h  1
  46 -5.3854515e+00 3.91e-01 1.04e+07  -6.0 5.78e+01    -  2.60e-02 8.75e-02h  1
  47 -5.3781337e+00 3.47e-01 9.06e+06  -6.0 6.25e+01    -  1.90e-02 1.14e-01h  1
  48 -5.3870055e+00 2.33e-01 5.63e+06  -6.0 8.86e+01    -  2.84e-02 3.32e-01h  1
  49 -5.4306481e+00 2.24e-01 6.52e+06  -6.0 1.19e+02    -  1.21e-01 9.09e-01h  1
iter    objective    inf_pr   inf_du lg(mu)  ||d||  lg(rg) alpha_du alpha_pr  ls
  50 -5.4389051e+00 1.94e-01 5.33e+06  -6.0 5.04e+01    -  5.68e-01 1.36e-01h  1
  51 -5.4872424e+00 3.35e-01 2.23e+06  -6.0 1.09e+02    -  1.45e-01 5.45e-01h  1
  52 -5.5396773e+00 1.06e+00 2.46e+05  -6.0 9.64e+01    -  8.06e-01 1.00e+00f  1
  53 -5.5603487e+00 4.42e-01 6.90e+04  -6.0 2.31e+02    -  7.54e-01 6.00e-01h  1
  54 -5.5765836e+00 4.38e-01 4.44e+04  -6.0 4.39e+02    -  4.40e-01 3.57e-01h  1
  55 -5.6167452e+00 6.40e+00 1.21e+05  -6.0 7.27e+02    -  2.24e-01 1.00e+00h  1
  56 -5.6253999e+00 4.88e+00 3.65e+04  -6.0 7.00e+02    -  4.33e-01 3.71e-01h  1
  57 -5.6266946e+00 4.76e+00 4.31e+05  -6.0 1.17e+03    -  2.51e-01 2.52e-02h  1
  58 -5.6456847e+00 4.80e+00 5.33e+08  -6.0 4.07e+03    -  2.21e-04 1.21e-01h  1
  59 -5.6466701e+00 4.73e+00 5.25e+08  -6.0 1.76e+03    -  6.98e-03 1.57e-02h  1
iter    objective    inf_pr   inf_du lg(mu)  ||d||  lg(rg) alpha_du alpha_pr  ls
  60 -5.6490036e+00 4.67e+00 5.17e+08  -6.0 1.48e+03    -  3.27e-03 1.45e-02h  1
  61 -5.6901969e+00 1.38e+01 2.03e+08  -6.0 1.60e+03    -  3.79e-02 6.08e-01h  1
  62 -5.6894723e+00 1.28e+01 1.87e+08  -6.0 1.12e+03    -  4.25e-01 8.03e-02h  1
  63 -5.6911462e+00 4.24e+01 7.20e+04  -6.0 1.79e+03    -  5.17e-01 1.00e+00h  1
  64 -5.6781185e+00 2.52e-02 1.53e+01  -6.0 1.51e+00  -4.0 3.73e-01 1.00e+00h  1
  65 -5.6785673e+00 6.96e-04 3.04e+00  -6.0 2.46e+00  -4.5 7.07e-01 1.00e+00h  1
  66 -5.6804146e+00 2.11e-03 9.01e-01  -6.0 7.32e+00  -5.0 9.99e-01 1.00e+00h  1
  67 -5.6847504e+00 1.34e-02 5.40e+00  -6.0 1.84e+01  -5.4 4.72e-01 1.00e+00h  1
  68 -5.6923944e+00 6.34e-02 1.81e+01  -6.0 3.87e+01  -5.9 1.00e+00 1.00e+00h  1
  69 -5.6967073e+00 1.57e-01 1.52e+01  -6.0 5.99e+01  -6.4 1.00e+00 1.00e+00h  1
iter    objective    inf_pr   inf_du lg(mu)  ||d||  lg(rg) alpha_du alpha_pr  ls
  70 -5.7028308e+00 2.34e-01 1.19e+01  -6.0 9.17e+01  -6.9 1.00e+00 8.22e-01h  1
  71 -5.7127725e+00 1.43e+00 2.47e+01  -6.0 5.30e+02  -7.3 4.38e-01 4.00e-01h  1
  72 -5.7171469e+00 7.02e-01 2.66e+04  -6.0 1.98e+02  -7.8 1.00e+00 5.16e-01h  1
  73 -5.7298710e+00 1.15e+00 1.60e+04  -6.0 4.64e+02  -8.3 5.10e-01 4.72e-01h  1
  74 -5.7371115e+00 2.28e+00 6.62e+04  -6.0 1.03e+03  -8.8 6.28e-01 2.69e-01h  1
  75 -5.7434575e+00 7.79e+00 1.59e+05  -6.0 2.45e+03  -9.2 8.27e-01 2.11e-01h  1
  76 -5.7526133e+00 3.68e+01 1.06e+05  -6.0 4.21e+03  -9.7 2.37e-01 2.84e-01h  1
  77 -5.7572916e+00 6.44e+01 4.16e+04  -6.0 9.56e+03 -10.2 4.71e-02 1.72e-01h  1
  78 -5.7613073e+00 5.61e+01 8.01e+04  -6.0 4.39e+03  -9.8 2.14e-01 1.39e-01h  1
  79 -5.7636050e+00 5.35e+01 7.75e+04  -6.0 3.93e+03 -10.3 8.22e-02 7.71e-02h  1
iter    objective    inf_pr   inf_du lg(mu)  ||d||  lg(rg) alpha_du alpha_pr  ls
  80 -5.7660992e+00 5.00e+01 1.59e+04  -6.0 3.36e+03  -9.8 2.49e-03 8.98e-02h  1
  81 -5.7693758e+00 4.66e+01 1.24e+05  -6.0 6.11e+03 -10.3 1.41e-03 1.14e-01h  1
  82 -5.7713074e+00 7.78e+01 1.38e+05  -6.0 2.70e+04    -  4.84e-02 6.35e-02h  1
  83 -5.7727386e+00 7.48e+01 1.23e+05  -6.0 6.95e+03    -  5.45e-02 4.98e-02h  1
  84 -5.7751722e+00 7.62e+01 2.09e+04  -6.0 7.68e+03    -  1.28e-01 7.93e-02h  1
  85 -5.7790548e+00 6.77e+01 2.67e+05  -6.0 5.75e+03    -  1.14e-02 1.26e-01h  1
  86 -5.7829586e+00 6.08e+01 2.31e+05  -6.0 3.79e+03    -  1.20e-01 1.19e-01h  1
  87 -5.7902868e+00 6.23e+01 7.71e+05  -6.0 7.15e+03    -  7.50e-02 2.09e-01h  1
  88 -5.7934997e+00 5.79e+01 6.57e+05  -6.0 7.93e+03    -  4.28e-03 7.93e-02h  1
  89r-5.7934997e+00 5.79e+01 1.00e+03   1.7 0.00e+00  -6.3 0.00e+00 6.26e-08R  2
iter    objective    inf_pr   inf_du lg(mu)  ||d||  lg(rg) alpha_du alpha_pr  ls
  90r-6.1226911e+00 5.79e+01 1.00e+03   1.7 1.00e+06    -  1.82e-08 4.01e-08f  1
  91 -6.1181051e+00 5.70e+01 2.14e+03  -6.0 3.66e+02    -  6.57e-06 1.40e-02h  1
  92 -6.0935000e+00 5.27e+01 1.97e+03  -6.0 3.47e+02    -  3.14e-02 7.64e-02h  1
  93 -6.0801424e+00 5.04e+01 1.88e+03  -6.0 2.44e+02    -  9.05e-03 4.43e-02h  1
  94 -5.9449403e+00 2.71e+01 9.98e+02  -6.0 2.12e+02    -  1.47e-01 4.64e-01h  1
  95 -5.9353075e+00 2.52e+01 9.29e+02  -6.0 5.88e+01    -  5.55e-01 7.00e-02h  1
  96 -5.9312905e+00 2.43e+01 8.95e+02  -6.0 3.77e+01    -  5.95e-01 3.63e-02h  1
  97 -5.8544964e+00 1.10e+01 4.06e+02  -6.0 1.00e+02    -  6.37e-01 5.48e-01h  1
  98 -5.7977136e+00 1.15e+00 7.25e+01  -6.0 5.38e+01  -4.9 8.72e-01 8.95e-01h  1
  99 -5.7947049e+00 6.18e-01 3.94e+01  -6.0 8.92e-01  -4.5 9.37e-01 4.63e-01h  1
iter    objective    inf_pr   inf_du lg(mu)  ||d||  lg(rg) alpha_du alpha_pr  ls
 100 -5.7916096e+00 2.73e-03 1.67e+02  -6.0 6.21e+00  -5.0 1.28e-01 1.00e+00h  1
 101 -5.7959127e+00 1.56e-01 2.99e+01  -6.0 8.19e+01    -  8.76e-01 8.52e-01h  1
 102 -5.8010101e+00 3.57e-01 8.04e+00  -6.0 1.24e+02    -  4.68e-01 8.17e-01h  1
 103 -5.7958575e+00 1.16e-01 7.20e+03  -6.0 7.76e+01    -  7.00e-01 1.00e+00h  1
 104 -5.8000558e+00 2.07e-01 8.03e+03  -6.0 2.18e+02    -  9.09e-01 4.03e-01h  1
 105 -5.8023150e+00 4.29e-02 6.21e+04  -6.0 3.24e+01  -5.5 3.71e-01 1.00e+00h  1
 106 -5.8023127e+00 4.28e-02 9.00e+04  -6.0 1.11e+03    -  7.46e-01 6.39e-04h  8
 107 -5.8022912e+00 1.33e+00 6.86e+04  -6.0 1.12e+03    -  2.36e-01 2.35e-01h  1
 108 -5.7988790e+00 6.47e-03 1.01e+04  -6.0 1.99e+01  -5.9 1.32e-04 1.00e+00h  1
 109 -5.7991299e+00 1.02e-03 5.97e+01  -6.0 3.75e+00  -6.4 1.00e+00 1.00e+00h  1
iter    objective    inf_pr   inf_du lg(mu)  ||d||  lg(rg) alpha_du alpha_pr  ls
 110 -5.7991217e+00 9.55e-04 2.10e-02  -6.0 4.46e+00  -6.9 1.00e+00 1.00e+00h  1
 111 -5.7991259e+00 7.35e-03 5.75e-03  -6.0 7.17e+00  -7.4 1.00e+00 1.00e+00h  1
 112 -5.7991353e+00 4.20e-02 4.91e-03  -6.0 2.16e+01  -7.9 1.00e+00 1.00e+00h  1
 113 -5.7991415e+00 5.57e-02 1.89e+01  -6.0 8.76e+04    -  9.35e-03 2.02e-04h  4
 114 -5.7991526e+00 2.14e-03 2.51e+00  -6.0 6.67e+01  -8.3 1.00e+00 1.00e+00H  1
 115 -5.7991742e+00 3.37e-02 2.10e+01  -6.0 5.96e+03    -  1.51e-01 6.87e-03h  4
 116 -5.7992047e+00 3.09e-02 2.11e+01  -6.0 1.55e+02  -8.8 4.89e-01 9.64e-02h  1
 117 -5.7992121e+00 3.51e-02 2.14e+01  -6.0 4.70e+03    -  7.86e-03 3.43e-03h  6
 118 -5.7992100e+00 3.51e-02 1.33e+01  -6.0 6.12e+03  -9.3 3.55e-02 1.14e-03h  6
 119 -5.7992117e+00 3.53e-02 2.33e+01  -6.0 4.46e+03    -  8.08e-02 8.58e-04h  8
iter    objective    inf_pr   inf_du lg(mu)  ||d||  lg(rg) alpha_du alpha_pr  ls
 120 -5.7992187e+00 3.48e-02 1.90e+01  -6.0 1.70e+02  -8.9 1.00e+00 3.40e-02h  1
 121 -5.7992221e+00 3.57e-02 2.57e+01  -6.0 4.08e+03    -  9.56e-02 1.78e-03h  7
 122 -5.7992209e+00 3.57e-02 1.55e+01  -6.0 1.27e+05  -9.3 1.70e-03 2.76e-05h  7
 123 -5.7992217e+00 3.57e-02 2.51e+01  -6.0 3.57e+03    -  9.64e-02 4.89e-04h  9
 124 -5.7993234e+00 2.57e-03 1.32e+01  -6.0 2.12e+02  -8.9 1.00e+00 1.00e+00H  1
 125 -5.7993282e+00 7.18e-02 3.77e+01  -6.0 2.11e+03  -9.4 7.22e-01 8.05e-03h  3
 126 -5.7993919e+00 1.00e+00 2.51e+01  -6.0 1.25e+03    -  3.37e-01 1.88e-01h  1
 127 -5.7994094e+00 2.14e+00 1.32e+01  -6.0 8.16e+02    -  1.00e+00 3.54e-01h  1
 128 -5.7994862e+00 1.94e+00 5.66e+00  -6.0 4.86e+02    -  1.00e+00 4.78e-01h  1
 129 -5.7995865e+00 2.92e+00 1.24e+01  -6.0 8.19e+02    -  1.00e+00 4.25e-01h  1
iter    objective    inf_pr   inf_du lg(mu)  ||d||  lg(rg) alpha_du alpha_pr  ls
 130 -5.7997710e+00 1.73e+01 1.22e+01  -6.0 1.42e+03    -  4.82e-01 6.72e-01h  1
 131 -5.7999338e+00 4.32e+01 1.28e+01  -6.0 2.64e+03    -  6.41e-01 5.60e-01h  1
 132 -5.7999342e+00 5.59e+01 5.95e+01  -6.0 4.55e+03    -  5.82e-01 2.74e-01h  1
 133 -5.7997585e+00 4.43e+01 7.06e+04  -6.0 2.14e+03    -  2.22e-03 4.85e-01h  1
 134 -5.7998290e+00 4.75e+01 7.02e+04  -6.0 1.19e+05  -9.9 8.09e-04 4.06e-03h  3
 135 -5.7998237e+00 4.54e+01 6.64e+04  -6.0 3.54e+03  -9.4 1.24e-01 5.68e-02h  1
 136 -5.7996708e+00 9.68e-01 4.93e+02  -6.0 2.10e+02  -9.0 1.19e-01 1.00e+00h  1
 137 -5.7997979e+00 9.71e+00 1.91e+01  -6.0 8.04e+02    -  8.48e-01 1.00e+00h  1
 138 -5.7997479e+00 1.10e+00 7.85e-01  -6.0 2.75e+02    -  1.00e+00 1.00e+00h  1
 139 -5.7997422e+00 2.88e-03 5.43e-04  -6.0 1.48e+01    -  1.00e+00 1.00e+00h  1
iter    objective    inf_pr   inf_du lg(mu)  ||d||  lg(rg) alpha_du alpha_pr  ls
 140 -5.7997417e+00 3.14e-04 7.14e-05  -6.0 4.52e+00    -  1.00e+00 1.00e+00h  1
 141 -5.7997417e+00 4.22e-07 9.87e-08  -6.0 1.66e-01    -  1.00e+00 1.00e+00h  1
 142 -5.7999259e+00 4.84e+00 8.35e+01  -7.5 7.64e+02    -  4.47e-01 7.35e-01h  1
 143 -5.7999172e+00 1.59e+00 2.38e+00  -7.5 2.55e+02    -  8.97e-01 8.17e-01h  1
 144 -5.7999064e+00 6.49e-02 6.46e-02  -7.5 6.23e+01    -  1.00e+00 1.00e+00h  1
 145 -5.7999059e+00 1.31e-05 3.79e-06  -7.5 9.73e-01    -  1.00e+00 1.00e+00h  1
 146 -5.7999059e+00 2.92e-10 1.73e-11  -7.5 1.39e-04    -  1.00e+00 1.00e+00h  1
 147 -5.7999076e+00 8.72e-03 9.47e-01  -9.0 2.83e+01    -  9.29e-01 8.26e-01h  1
 148 -5.7999078e+00 3.99e-04 3.03e-01  -9.0 4.99e+00    -  9.34e-01 1.00e+00h  1
 149 -5.7999078e+00 4.55e-10 4.13e-09  -9.0 5.79e-03    -  1.00e+00 1.00e+00h  1

Number of Iterations....: 149

                                   (scaled)                 (unscaled)
Objective...............:  -4.5311779573448243e+00   -5.7999077854013752e+00
Dual infeasibility......:   4.1326919266620998e-09    5.2898456661274876e-09
Constraint violation....:   3.7371804777595838e-10    4.5474735088646407e-10
Complementarity.........:   1.2909733851849775e-09    1.6524459330367712e-09
Overall NLP error.......:   4.1326919266620998e-09    5.2898456661274876e-09


Number of objective function evaluations             = 300
Number of objective gradient evaluations             = 150
Number of equality constraint evaluations            = 300
Number of inequality constraint evaluations          = 300
Number of equality constraint Jacobian evaluations   = 153
Number of inequality constraint Jacobian evaluations = 153
Number of Lagrangian Hessian evaluations             = 149
Total CPU secs in IPOPT (w/o function evaluations)   =    349.083
Total CPU secs in NLP function evaluations           =      6.738

EXIT: Optimal Solution Found.
